problems/csplib-prob015/SchursLemma-models/noch/O2/lingeling/model_1_3-7-13-solution000001.eprime-solution
language ESSENCE' 1.0

letting boxes_PartitionAsSet_ExplicitR5_ExplicitVarSizeWithMarker_Marker be [1, 1, 1, 2, 2, 3, 3; int(1..7)]
letting boxes_PartitionAsSet_ExplicitR5_ExplicitVarSizeWithMarker_Values be
        [[2, 1, 1, 1, 1, 1, 1, 1, 1, 1, 1, 1, 1; int(1..13)], [3, 1, 1, 1, 1, 1, 1, 1, 1, 1, 1, 1, 1; int(1..13)],
         [5, 1, 1, 1, 1, 1, 1, 1, 1, 1, 1, 1, 1; int(1..13)], [1, 7, 1, 1, 1, 1, 1, 1, 1, 1, 1, 1, 1; int(1..13)],
         [10, 13, 1, 1, 1, 1, 1, 1, 1, 1, 1, 1, 1; int(1..13)], [4, 6, 11, 1, 1, 1, 1, 1, 1, 1, 1, 1, 1; int(1..13)],
         [8, 9, 12, 1, 1, 1, 1, 1, 1, 1, 1, 1, 1; int(1..13)]; int(1..7)]
