problems/csplib-prob015/SchursLemma-models/noch/O2/lingeling/model_1_3-7-13-solution000001.solution
language Essence 1.3

letting boxes be partition({1, 7}, {2}, {3}, {4, 6, 11}, {5}, {8, 9, 12}, {10, 13})
